(set-logic QF_S)
(declare-fun var0 () Int)
(declare-fun var1 () Int)
(declare-fun var2 () String)
(declare-fun var3 () String)
(declare-fun var4 () String)
(declare-fun var5 () Int)
(declare-fun var6 () String)
(declare-fun var7 () Int)
(assert (>= var0 var1))
(assert (< (str.len var2) (str.len var3)))
(assert (str.contains (str.at var4 var5) (str.at var6 var7)))
(assert (str.suffixof (str.substr "|&;uiF}m" var7 var1) (str.at var6 var7)))
(check-sat)